15 40
25
2 11 6 21
3 2 10 19
7 10 8 30
4 8 3 0
5 9 8 21
2 7 0 21
1 4 10 11
1 6 0 34
5 4 10 15
3 8 0 0
3 1 3 34
5 5 3 35
1 3 6 8
4 12 11 0
2 6 0 28
4 2 6 11
4 11 7 0
2 10 0 8
2 3 6 32
2 11 13 19
4 3 11 12
4 26 2 8
4 8 6 13
2 3 0 18
2 6 1 34
% time elapsed: 200.52 s
% time elapsed: 200.52 s
%%%mzn-stat: initTime=0.000375
%%%mzn-stat: solveTime=200.434
%%%mzn-stat: solutions=68
%%%mzn-stat: variables=51
%%%mzn-stat: propagators=30
%%%mzn-stat: propagations=86021531
%%%mzn-stat: nodes=27326470
%%%mzn-stat: failures=13657752
%%%mzn-stat: restarts=590
%%%mzn-stat: peakDepth=112
%%%mzn-stat-end
